db/data/319822920211859256908264806255432520.z3.out
-------------------
2500.131635402
